TCS_Benchmarks/redos_fix/snort3_output_distinct_2217_2216_16_0.txt
(\S{2,6})(\d{1,7})
(\S{2,6})(\\)(\d{1,7})